(set-logic QF_LIA)
(declare-fun x0 () Int)
(declare-fun x1 () Int)
(declare-fun x2 () Int)
(declare-fun x3 () Int)
(declare-fun x4 () Int)
(declare-fun x5 () Int)
(declare-fun x6 () Int)
(declare-fun x7 () Int)
(declare-fun x8 () Int)
(declare-fun x9 () Int)
(declare-fun A0 () Bool)
(declare-fun A1 () Bool)
(declare-fun A2 () Bool)
(declare-fun A3 () Bool)
(declare-fun A4 () Bool)
(declare-fun A5 () Bool)
(declare-fun A6 () Bool)
(declare-fun A7 () Bool)
(declare-fun A8 () Bool)
(declare-fun A9 () Bool)
(assert (let ((.def_0 (* (- 1) x4))) (let ((.def_1 (< .def_0 1))) (let ((.def_2 (not .def_1))) (let ((.def_3 (or A7 .def_2))) (let ((.def_4 (not .def_3))) (let ((.def_5 (* 1 x4))) (let ((.def_6 (* (- 1) x8))) (let ((.def_7 (+ .def_6 .def_5))) (let ((.def_8 (< .def_7 1))) (let ((.def_9 (* 1 x7))) (let ((.def_10 (+ .def_9 .def_6))) (let ((.def_11 (< .def_10 1))) (let ((.def_12 (or .def_11 .def_8))) (let ((.def_13 (= .def_12 .def_4))) (let ((.def_14 (* 1 x9))) (let ((.def_15 (< .def_14 1))) (let ((.def_16 (or A7 .def_15))) (let ((.def_17 (* 1 x8))) (let ((.def_18 (+ .def_17 .def_9))) (let ((.def_19 (< .def_18 1))) (let ((.def_20 (not .def_19))) (let ((.def_21 (and A5 .def_20))) (let ((.def_22 (and .def_21 .def_16))) (let ((.def_23 (or .def_22 .def_13))) (let ((.def_24 (not .def_23))) (let ((.def_25 (not A2))) (let ((.def_26 (* (- 1) x6))) (let ((.def_27 (+ .def_26 .def_9))) (let ((.def_28 (< .def_27 (- 1)))) (let ((.def_29 (not .def_28))) (let ((.def_30 (or .def_29 .def_25))) (let ((.def_31 (* 1 x1))) (let ((.def_32 (* (- 1) x0))) (let ((.def_33 (+ .def_32 .def_31))) (let ((.def_34 (< .def_33 1))) (let ((.def_35 (* 1 x5))) (let ((.def_36 (+ .def_35 .def_5))) (let ((.def_37 (< .def_36 1))) (let ((.def_38 (not .def_37))) (let ((.def_39 (and .def_38 .def_34))) (let ((.def_40 (and .def_39 .def_30))) (let ((.def_41 (not .def_40))) (let ((.def_42 (and A2 A7))) (let ((.def_43 (< .def_26 (- 1)))) (let ((.def_44 (not .def_43))) (let ((.def_45 (* 1 x0))) (let ((.def_46 (* (- 1) x1))) (let ((.def_47 (+ .def_46 .def_45))) (let ((.def_48 (< .def_47 (- 1)))) (let ((.def_49 (not .def_48))) (let ((.def_50 (= .def_49 .def_44))) (let ((.def_51 (and .def_50 .def_42))) (let ((.def_52 (and .def_51 .def_41))) (let ((.def_53 (and .def_52 .def_24))) (let ((.def_54 (not .def_53))) (let ((.def_55 (* (- 1) x5))) (let ((.def_56 (< .def_55 (- 1)))) (let ((.def_57 (* 1 x3))) (let ((.def_58 (+ .def_57 .def_35))) (let ((.def_59 (< .def_58 (- 1)))) (let ((.def_60 (or .def_59 .def_56))) (let ((.def_61 (< .def_35 (- 1)))) (let ((.def_62 (not A8))) (let ((.def_63 (= .def_62 .def_61))) (let ((.def_64 (not .def_63))) (let ((.def_65 (and .def_64 .def_60))) (let ((.def_66 (not A4))) (let ((.def_67 (< .def_14 (- 1)))) (let ((.def_68 (or .def_67 .def_66))) (let ((.def_69 (not A9))) (let ((.def_70 (not A0))) (let ((.def_71 (or .def_70 .def_69))) (let ((.def_72 (or .def_71 .def_68))) (let ((.def_73 (and .def_72 .def_65))) (let ((.def_74 (not .def_73))) (let ((.def_75 (* (- 1) x9))) (let ((.def_76 (< .def_75 1))) (let ((.def_77 (and .def_76 A6))) (let ((.def_78 (* (- 1) x2))) (let ((.def_79 (+ .def_0 .def_78))) (let ((.def_80 (< .def_79 (- 1)))) (let ((.def_81 (+ .def_55 .def_26))) (let ((.def_82 (< .def_81 (- 1)))) (let ((.def_83 (not .def_82))) (let ((.def_84 (or .def_83 .def_80))) (let ((.def_85 (not .def_84))) (let ((.def_86 (or .def_85 .def_77))) (let ((.def_87 (< .def_32 (- 1)))) (let ((.def_88 (and A0 .def_87))) (let ((.def_89 (not .def_88))) (let ((.def_90 (and .def_15 A8))) (let ((.def_91 (and .def_90 .def_89))) (let ((.def_92 (= .def_91 .def_86))) (let ((.def_93 (not .def_92))) (let ((.def_94 (= .def_93 .def_74))) (let ((.def_95 (not .def_94))) (let ((.def_96 (and .def_95 .def_54))) (let ((.def_97 (not .def_96))) (let ((.def_98 (not A1))) (let ((.def_99 (and .def_76 .def_98))) (let ((.def_100 (not .def_99))) (let ((.def_101 (or A9 A3))) (let ((.def_102 (or .def_101 .def_100))) (let ((.def_103 (not .def_102))) (let ((.def_104 (or A5 A1))) (let ((.def_105 (not .def_104))) (let ((.def_106 (* 1 x6))) (let ((.def_107 (< .def_106 1))) (let ((.def_108 (not .def_107))) (let ((.def_109 (< .def_0 (- 1)))) (let ((.def_110 (and .def_109 .def_108))) (let ((.def_111 (and .def_110 .def_105))) (let ((.def_112 (= .def_111 .def_103))) (let ((.def_113 (not A7))) (let ((.def_114 (or .def_70 .def_113))) (let ((.def_115 (not .def_114))) (let ((.def_116 (or A2 A6))) (let ((.def_117 (and .def_116 .def_115))) (let ((.def_118 (not .def_117))) (let ((.def_119 (+ .def_35 .def_32))) (let ((.def_120 (< .def_119 1))) (let ((.def_121 (not .def_120))) (let ((.def_122 (and .def_121 .def_98))) (let ((.def_123 (not .def_122))) (let ((.def_124 (+ .def_57 .def_26))) (let ((.def_125 (< .def_124 1))) (let ((.def_126 (not .def_125))) (let ((.def_127 (or .def_126 .def_113))) (let ((.def_128 (not .def_127))) (let ((.def_129 (and .def_128 .def_123))) (let ((.def_130 (and .def_129 .def_118))) (let ((.def_131 (or .def_130 .def_112))) (let ((.def_132 (* (- 1) x7))) (let ((.def_133 (+ .def_32 .def_132))) (let ((.def_134 (< .def_133 1))) (let ((.def_135 (or .def_134 A1))) (let ((.def_136 (< .def_45 1))) (let ((.def_137 (not .def_136))) (let ((.def_138 (and A6 .def_137))) (let ((.def_139 (or .def_138 .def_135))) (let ((.def_140 (+ .def_17 .def_46))) (let ((.def_141 (< .def_140 (- 1)))) (let ((.def_142 (not .def_141))) (let ((.def_143 (and .def_62 .def_142))) (let ((.def_144 (and .def_113 A2))) (let ((.def_145 (not .def_144))) (let ((.def_146 (and .def_145 .def_143))) (let ((.def_147 (not .def_146))) (let ((.def_148 (and .def_147 .def_139))) (let ((.def_149 (not .def_148))) (let ((.def_150 (or A8 A3))) (let ((.def_151 (* (- 1) x3))) (let ((.def_152 (+ .def_132 .def_151))) (let ((.def_153 (< .def_152 1))) (let ((.def_154 (and .def_69 .def_153))) (let ((.def_155 (or .def_154 .def_150))) (let ((.def_156 (= .def_25 .def_98))) (let ((.def_157 (not .def_156))) (let ((.def_158 (or .def_69 A3))) (let ((.def_159 (and .def_158 .def_157))) (let ((.def_160 (and .def_159 .def_155))) (let ((.def_161 (and .def_160 .def_149))) (let ((.def_162 (not .def_161))) (let ((.def_163 (or .def_162 .def_131))) (let ((.def_164 (and .def_163 .def_97))) (let ((.def_165 (<= x9 1))) (let ((.def_166 (<= 0 x9))) (let ((.def_167 (<= x8 1))) (let ((.def_168 (<= 0 x8))) (let ((.def_169 (<= x7 1))) (let ((.def_170 (<= 0 x7))) (let ((.def_171 (<= x6 1))) (let ((.def_172 (<= 0 x6))) (let ((.def_173 (<= x5 1))) (let ((.def_174 (<= 0 x5))) (let ((.def_175 (<= x4 1))) (let ((.def_176 (<= 0 x4))) (let ((.def_177 (<= x3 1))) (let ((.def_178 (<= 0 x3))) (let ((.def_179 (<= x2 1))) (let ((.def_180 (<= 0 x2))) (let ((.def_181 (<= x1 1))) (let ((.def_182 (<= 0 x1))) (let ((.def_183 (<= x0 1))) (let ((.def_184 (<= 0 x0))) (let ((.def_185 (and .def_184 .def_183 .def_182 .def_181 .def_180 .def_179 .def_178 .def_177 .def_176 .def_175 .def_174 .def_173 .def_172 .def_171 .def_170 .def_169 .def_168 .def_167 .def_166 .def_165 .def_164))) .def_185)))))))))))))))))))))))))))))))))))))))))))))))))))))))))))))))))))))))))))))))))))))))))))))))))))))))))))))))))))))))))))))))))))))))))))))))))))))))))))))))))))))))))))))))))))))))))))
(check-sat)
